proyfinal/src/viki/013/experimentInOfficeAgust.take6.output/390263e5-9a30-4e93-b080-73cd2e142eec.als.dat
{'cnf.clauses': '118081',
 'cnf.totvars': '69608',
 'conflict literals': '7754',
 'conflicts': '505',
 'decisions': '7096',
 'memused.mb': '16.99',
 'outcome': 'UNSAT',
 'propagations': '750263',
 'restarts': '4',
 'solver.msecs': 64,
 'task.msecs': 118}
